22      4       
10      10      10      10      
0       0       0       0       0       4       2       3       4       5       
5       10      6       4       5       2       8       21      
10      1       4       3       6       1       6       
9       4       9       7       10      1       21      
1       2       7       9       8       1       7       
7       10      5       6       5       1       9       
2       2       5       5       10      1       11      
5       8       5       9       7       1       10      
2       7       9       1       1       1       12      
9       3       7       3       4       1       15      
9       7       6       10      6       1       13      
7       9       10      8       6       1       14      
3       5       8       3       3       1       20      
2       4       5       10      8       1       17      
9       5       2       8       9       1       16      
8       10      1       8       8       1       19      
7       7       9       9       1       1       18      
4       2       8       1       1       1       22      
10      9       3       6       6       1       22      
6       4       3       10      9       1       22      
2       5       6       9       10      1       22      
0       0       0       0       0       0       
